NAME /Users/henri/Research/solvers/instances/idol-instances/robust/collection/cbp_Subramanyam_et_al_2020/CapBud_N5_9/models/uncertain_technology_matrix/
ROWS
 N  OBJ
 L  capacity
 L  c_195
 L  c_196
 L  c_197
 L  c_198
 L  c_199
COLUMNS
    MARKER    'MARKER'                 'INTORG'
    x_0        OBJ        -0.559658
    x_0        c_195      1
    x_0        capacity   0.111932
    x_1        OBJ        -0.865325
    x_1        c_196      1
    x_1        capacity   0.173065
    x_2        OBJ        -2.37173
    x_2        c_197      1
    x_2        capacity   0.474347
    x_3        OBJ        -8.39513
    x_3        c_198      1
    x_3        capacity   1.67903
    x_4        OBJ        -5.22371
    x_4        c_199      1
    x_4        capacity   1.04474
    y_0        OBJ        -0.447727
    y_0        c_195      1
    y_0        capacity   0.111932
    y_1        OBJ        -0.69226
    y_1        c_196      1
    y_1        capacity   0.173065
    y_2        OBJ        -1.89739
    y_2        c_197      1
    y_2        capacity   0.474347
    y_3        OBJ        -6.7161
    y_3        c_198      1
    y_3        capacity   1.67903
    y_4        OBJ        -4.17896
    y_4        c_199      1
    y_4        capacity   1.04474
    MARKER    'MARKER'                 'INTEND'
RHS
    RHS       capacity   8.70778
    RHS       c_195      1
    RHS       c_196      1
    RHS       c_197      1
    RHS       c_198      1
    RHS       c_199      1
BOUNDS
 LI BND       x_0        0
 UI BND       x_0        1
 LI BND       x_1        0
 UI BND       x_1        1
 LI BND       x_2        0
 UI BND       x_2        1
 LI BND       x_3        0
 UI BND       x_3        1
 LI BND       x_4        0
 UI BND       x_4        1
 LI BND       y_0        0
 UI BND       y_0        1
 LI BND       y_1        0
 UI BND       y_1        1
 LI BND       y_2        0
 UI BND       y_2        1
 LI BND       y_3        0
 UI BND       y_3        1
 LI BND       y_4        0
 UI BND       y_4        1
ENDATA
